371 5
10 10 10 10 10 

0 0 0 0 0 0 5 2 14 46 78 110 
0 0 0 0 0 0 3 3 4 8 
5 0 0 1 0 0 3 7 6 5 
8 0 0 10 0 0 3 7 5 170 
4 0 0 5 0 0 4 12 11 10 9 
10 0 0 4 0 0 4 12 11 10 9 
9 0 0 7 0 0 3 12 10 9 
6 0 0 2 0 0 3 11 10 9 
2 0 0 6 0 0 1 13 
6 0 0 6 0 0 1 13 
6 0 0 6 0 0 1 13 
2 0 0 3 0 0 1 13 
0 0 0 0 0 0 4 142 164 186 208 
0 0 0 0 0 0 6 15 16 17 18 19 22 
6 0 6 1 0 2 5 32 30 23 21 20 
5 0 4 7 0 5 4 32 29 23 20 
9 0 6 5 0 7 4 30 29 23 20 
8 0 4 9 0 7 3 32 21 20 
9 0 3 8 0 4 2 32 21 
3 0 7 9 0 2 4 28 27 26 24 
9 0 4 4 0 7 5 34 33 29 28 27 
8 0 7 3 0 3 3 34 33 27 
1 0 2 6 0 5 1 25 
6 0 2 7 0 5 3 34 33 31 
8 0 8 6 0 4 3 34 33 31 
4 0 3 4 0 8 2 33 31 
4 0 8 2 0 10 1 31 
8 0 4 3 0 7 1 31 
7 0 6 3 0 5 1 31 
8 0 4 3 0 4 1 31 
5 0 5 8 0 4 5 44 43 38 36 35 
8 0 10 9 0 4 2 38 33 
1 0 5 6 0 7 4 44 43 39 37 
3 0 3 4 0 4 2 43 35 
3 0 6 3 0 4 2 42 39 
4 0 8 6 0 9 1 37 
3 0 5 6 0 8 2 42 41 
8 0 5 3 0 3 2 42 41 
8 0 4 3 0 4 2 40 367 
4 0 5 6 0 4 1 41 
1 0 3 2 0 5 1 45 
4 0 6 6 0 4 1 45 
9 0 3 3 0 3 1 45 
10 0 4 5 0 2 1 45 
0 0 0 0 0 0 1 268 
0 0 0 0 0 0 6 47 48 49 50 52 76 
4 1 0 0 1 1 4 60 54 53 51 
8 5 0 0 2 7 5 75 66 58 55 54 
9 2 0 0 5 7 6 71 67 66 65 58 55 
1 5 0 0 2 6 5 66 65 60 58 55 
2 4 0 0 6 1 4 71 66 65 55 
5 3 0 0 2 4 5 74 70 61 60 57 
1 6 0 0 3 5 3 70 57 56 
5 6 0 0 8 7 6 71 70 65 64 61 195 
10 8 0 0 3 5 2 70 56 
10 5 0 0 6 8 3 73 64 61 
3 7 0 0 6 5 3 71 64 62 
5 5 0 0 3 5 2 72 59 
2 8 0 0 5 8 1 61 
10 4 0 0 7 3 2 71 63 
7 6 0 0 7 3 1 62 
1 5 0 0 3 5 1 63 
6 6 0 0 3 5 1 68 
10 3 0 0 9 5 1 69 
9 6 0 0 3 4 1 72 
1 5 0 0 8 7 1 72 
8 5 0 0 4 5 1 70 
1 8 0 0 8 8 1 77 
2 5 0 0 4 5 1 77 
10 4 0 0 3 1 1 77 
6 7 0 0 6 7 1 77 
5 5 0 0 9 5 1 77 
10 5 0 0 7 5 1 77 
10 3 0 0 8 5 1 77 
8 4 0 0 4 4 1 77 
8 4 0 0 5 4 1 77 
0 0 0 0 0 0 1 268 
0 0 0 0 0 0 6 79 80 81 82 83 84 
5 0 0 1 1 1 3 87 86 85 
10 0 0 3 3 5 3 94 87 85 
7 0 0 8 5 3 3 94 87 85 
6 0 0 6 4 7 3 91 90 86 
8 0 0 8 5 9 3 91 90 86 
4 0 0 9 7 3 2 86 85 
2 0 0 6 5 7 5 95 93 90 89 88 
8 0 0 3 6 3 5 95 94 93 89 88 
9 0 0 4 3 7 2 92 91 
4 0 0 6 5 7 3 98 97 96 
5 0 0 5 6 3 3 98 97 96 
8 0 0 3 4 4 3 98 97 96 
2 0 0 7 4 4 3 98 97 96 
3 0 0 4 7 3 3 98 97 96 
7 0 0 4 10 9 2 98 96 
1 0 0 6 7 4 4 100 99 97 342 
9 0 0 5 2 4 1 96 
4 0 0 4 7 3 3 104 100 99 
1 0 0 5 4 8 4 108 104 102 101 
1 0 0 5 4 3 3 104 102 99 
6 0 0 9 8 6 2 103 101 
1 0 0 6 4 4 2 108 102 
10 0 0 3 2 6 2 107 105 
7 0 0 3 9 6 1 103 
4 0 0 6 7 6 2 107 106 
3 0 0 2 5 4 2 107 106 
3 0 0 3 4 6 1 106 
7 0 0 4 3 5 1 109 
7 0 0 7 1 5 1 109 
5 0 0 5 8 5 1 109 
0 0 0 0 0 0 1 268 
0 0 0 0 0 0 9 111 114 117 118 120 137 138 139 140 
7 3 1 1 0 0 5 132 125 124 113 112 
7 1 10 6 0 0 3 131 130 115 
8 9 5 5 0 0 4 135 133 127 116 
2 3 8 2 0 0 4 136 134 127 116 
8 4 3 5 0 0 2 127 116 
8 4 6 4 0 0 4 128 123 119 203 
6 3 5 6 0 0 5 134 132 128 127 122 
8 4 5 4 0 0 3 130 127 124 
8 2 5 8 0 0 1 121 
5 3 4 9 0 0 2 133 132 
8 4 8 4 0 0 1 122 
5 2 6 5 0 0 1 126 
9 7 5 5 0 0 1 129 
5 8 4 5 0 0 1 131 
5 5 7 5 0 0 1 130 
7 9 1 4 0 0 1 141 
4 4 5 8 0 0 1 141 
6 7 6 6 0 0 1 141 
5 10 6 4 0 0 1 141 
10 8 1 4 0 0 1 141 
6 3 7 7 0 0 1 141 
8 4 2 4 0 0 1 141 
4 7 5 9 0 0 1 141 
7 9 8 5 0 0 1 141 
6 5 7 3 0 0 1 141 
9 5 5 4 0 0 1 141 
4 4 2 5 0 0 1 141 
2 4 5 7 0 0 1 141 
5 3 4 3 0 0 1 141 
7 6 4 3 0 0 1 141 
0 0 0 0 0 0 1 268 
0 0 0 0 0 0 4 143 144 145 146 
7 0 0 1 0 1 5 155 153 151 150 149 
1 0 0 4 0 7 4 153 149 148 147 
8 0 0 3 0 3 3 153 149 148 
8 0 0 3 0 5 3 151 148 147 
6 0 0 6 0 10 4 156 155 154 152 
9 0 0 6 0 4 3 156 155 152 
10 0 0 2 0 3 2 154 152 
6 0 0 8 0 9 2 154 152 
3 0 0 5 0 4 4 161 158 157 156 
10 0 0 4 0 7 5 162 161 160 158 323 
5 0 0 5 0 2 4 161 160 158 157 
6 0 0 4 0 4 3 162 160 157 
1 0 0 6 0 7 3 161 158 157 
6 0 0 6 0 6 2 162 160 
4 0 0 6 0 5 1 159 
1 0 0 9 0 4 1 159 
1 0 0 7 0 8 1 163 
4 0 0 6 0 5 1 163 
7 0 0 7 0 2 1 163 
6 0 0 2 0 4 1 163 
0 0 0 0 0 0 1 268 
0 0 0 0 0 0 12 165 167 170 171 177 178 179 180 181 182 183 184 
5 0 3 1 0 0 2 176 166 
9 0 4 6 0 0 2 175 168 
6 0 8 8 0 0 3 174 173 365 
4 0 4 5 0 0 1 169 
10 0 4 4 0 0 1 172 
1 0 7 3 0 0 1 174 
5 0 5 5 0 0 1 173 
4 0 3 7 0 0 1 185 
6 0 2 5 0 0 1 185 
4 0 3 7 0 0 1 185 
8 0 7 3 0 0 1 185 
6 0 10 3 0 0 1 185 
4 0 5 5 0 0 1 185 
8 0 6 3 0 0 1 185 
3 0 7 7 0 0 1 185 
4 0 3 7 0 0 1 185 
3 0 6 4 0 0 1 185 
3 0 5 5 0 0 1 185 
9 0 4 6 0 0 1 185 
8 0 4 6 0 0 1 185 
0 0 0 0 0 0 1 268 
0 0 0 0 0 0 8 187 188 189 191 192 193 195 200 
1 1 0 0 0 1 4 205 197 194 190 
2 3 0 0 0 8 5 205 204 199 197 194 
4 3 0 0 0 5 7 206 205 204 203 202 197 319 
3 5 0 0 0 5 4 206 204 203 196 
5 5 0 0 0 7 5 206 204 203 202 198 
5 3 0 0 0 5 4 204 203 202 197 
9 10 0 0 0 5 3 205 198 194 
7 4 0 0 0 5 3 203 202 201 
10 4 0 0 0 6 3 204 202 201 
9 3 0 0 0 7 2 202 198 
5 10 0 0 0 7 1 198 
1 9 0 0 0 3 1 201 
4 6 0 0 0 5 1 201 
8 3 0 0 0 3 1 201 
4 5 0 0 0 4 1 207 
9 5 0 0 0 2 1 207 
10 7 0 0 0 6 1 207 
8 4 0 0 0 8 1 207 
10 4 0 0 0 5 1 207 
6 6 0 0 0 3 1 207 
0 0 0 0 0 0 1 268 
0 0 0 0 0 0 6 209 210 211 213 214 314 
8 0 1 0 0 0 3 217 216 212 
5 0 7 0 0 0 3 217 216 215 
8 0 6 0 0 0 2 217 215 
4 0 4 0 0 0 1 215 
6 0 5 0 0 0 1 218 
2 0 4 0 0 0 1 216 
10 0 5 0 0 0 1 219 
4 0 4 0 0 0 1 219 
2 0 5 0 0 0 1 219 
2 0 9 0 0 0 1 219 
0 0 0 0 0 0 4 220 232 244 256 
0 0 0 0 0 0 4 221 222 224 230 
5 0 0 0 1 0 4 229 227 225 223 
6 0 0 0 5 0 4 229 228 227 226 
4 0 0 0 8 0 2 228 226 
4 0 0 0 5 0 2 227 226 
3 0 0 0 6 0 1 226 
5 0 0 0 4 0 1 231 
4 0 0 0 4 0 2 231 286 
6 0 0 0 3 0 1 231 
3 0 0 0 8 0 1 231 
7 0 0 0 6 0 1 231 
0 0 0 0 0 0 1 268 
0 0 0 0 0 0 2 233 234 
10 1 0 0 0 0 5 242 241 240 237 235 
9 8 0 0 0 0 4 241 240 236 235 
4 6 0 0 0 0 2 239 238 
4 4 0 0 0 0 1 239 
7 5 0 0 0 0 1 238 
4 3 0 0 0 0 2 243 265 
6 8 0 0 0 0 1 243 
2 5 0 0 0 0 1 243 
5 5 0 0 0 0 1 243 
3 5 0 0 0 0 1 243 
0 0 0 0 0 0 1 268 
0 0 0 0 0 0 3 245 246 247 
1 0 0 0 1 0 4 254 253 249 248 
7 0 0 0 5 0 6 254 253 251 250 249 368 
3 0 0 0 4 0 2 249 248 
6 0 0 0 7 0 2 251 250 
9 0 0 0 6 0 1 252 
10 0 0 0 3 0 1 255 
2 0 0 0 3 0 1 255 
8 0 0 0 7 0 1 255 
2 0 0 0 7 0 1 255 
6 0 0 0 7 0 1 255 
0 0 0 0 0 0 1 268 
0 0 0 0 0 0 5 257 258 259 260 266 
1 0 1 0 0 0 4 265 264 263 262 
7 0 4 0 0 0 3 264 263 261 
9 0 6 0 0 0 3 264 263 262 
3 0 6 0 0 0 3 264 263 262 
7 0 7 0 0 0 1 262 
5 0 9 0 0 0 2 267 277 
5 0 7 0 0 0 1 267 
1 0 5 0 0 0 1 267 
9 0 2 0 0 0 1 267 
5 0 3 0 0 0 1 267 
0 0 0 0 0 0 1 268 
0 0 0 0 0 0 4 269 291 313 325 
0 0 0 0 0 0 5 270 271 272 274 277 
1 0 0 0 1 3 4 289 282 278 275 
2 0 0 0 2 5 3 283 278 273 
3 0 0 0 7 6 5 288 283 282 278 276 
9 0 0 0 5 8 3 289 288 276 
7 0 0 0 4 3 3 288 281 278 
6 0 0 0 5 10 2 288 276 
10 0 0 0 6 4 4 286 281 280 279 
5 0 0 0 6 3 5 289 288 285 284 282 
7 0 0 0 8 3 3 286 280 279 
7 0 0 0 6 5 2 287 284 
5 0 0 0 3 1 1 285 
2 0 0 0 4 6 1 285 
10 0 0 0 5 5 1 286 
10 0 0 0 7 5 1 284 
1 0 0 0 2 5 1 290 
7 0 0 0 7 4 1 290 
3 0 0 0 7 3 1 290 
7 0 0 0 3 7 1 290 
1 0 0 0 8 6 1 290 
4 0 0 0 4 8 1 290 
0 0 0 0 0 0 1 371 
0 0 0 0 0 0 9 292 293 294 295 296 298 299 300 302 
5 0 0 1 0 1 2 305 297 
7 0 0 3 0 5 2 305 297 
7 0 0 8 0 2 3 311 305 301 
8 0 0 5 0 3 1 297 
4 0 0 8 0 6 5 311 310 306 305 304 
7 0 0 5 0 9 4 311 310 306 303 
10 0 0 6 0 5 4 311 310 306 303 
3 0 0 6 0 5 4 311 306 305 303 
5 0 0 6 0 6 4 311 310 309 303 
2 0 0 6 0 4 3 310 309 303 
5 0 0 5 0 6 2 310 304 
5 0 0 4 0 3 1 304 
2 0 0 6 0 6 2 308 307 
1 0 0 6 0 6 2 309 307 
6 0 0 5 0 6 1 309 
7 0 0 2 0 4 1 312 
5 0 0 9 0 6 1 312 
6 0 0 1 0 4 1 312 
10 0 0 4 0 5 1 312 
3 0 0 4 0 8 1 312 
0 0 0 0 0 0 1 371 
0 0 0 0 0 0 7 314 315 316 318 319 322 323 
10 0 1 0 0 0 1 317 
2 0 7 0 0 0 1 317 
3 0 3 0 0 0 1 317 
4 0 5 0 0 0 1 320 
3 0 3 0 0 0 1 321 
8 0 6 0 0 0 1 320 
1 0 3 0 0 0 1 324 
1 0 9 0 0 0 1 324 
6 0 4 0 0 0 1 324 
9 0 9 0 0 0 1 324 
0 0 0 0 0 0 2 347 359 
0 0 0 0 0 0 4 326 327 328 330 
3 0 0 0 1 1 3 332 331 329 
4 0 0 0 4 9 3 338 332 331 
6 0 0 0 7 5 3 338 333 332 
10 0 0 0 7 6 4 338 335 334 333 
8 0 0 0 7 4 4 338 335 334 333 
7 0 0 0 2 5 3 335 334 333 
2 0 0 0 4 4 3 345 335 334 
4 0 0 0 4 7 5 345 340 339 337 336 
1 0 0 0 4 5 3 340 337 336 
5 0 0 0 7 4 4 344 343 340 339 
7 0 0 0 10 4 3 344 343 342 
8 0 0 0 4 8 3 344 342 341 
6 0 0 0 5 5 3 343 342 341 
10 0 0 0 2 5 2 342 341 
2 0 0 0 5 8 1 341 
10 0 0 0 5 4 1 346 
2 0 0 0 5 5 1 346 
5 0 0 0 7 5 1 346 
4 0 0 0 5 2 1 346 
4 0 0 0 5 4 1 346 
0 0 0 0 0 0 1 371 
0 0 0 0 0 0 3 348 349 350 
6 0 0 0 1 0 4 354 353 352 351 
10 0 0 0 6 0 4 357 355 354 351 
6 0 0 0 7 0 3 353 352 351 
5 0 0 0 4 0 1 356 
1 0 0 0 8 0 1 357 
10 0 0 0 6 0 1 356 
8 0 0 0 3 0 1 356 
8 0 0 0 6 0 1 356 
5 0 0 0 3 0 1 358 
1 0 0 0 6 0 1 358 
0 0 0 0 0 0 1 371 
0 0 0 0 0 0 3 360 361 363 
8 0 0 1 0 0 4 369 368 365 362 
1 0 0 3 0 0 4 368 367 366 364 
10 0 0 8 0 0 2 367 366 
8 0 0 7 0 0 1 364 
10 0 0 8 0 0 1 365 
6 0 0 3 0 0 1 370 
5 0 0 8 0 0 1 370 
4 0 0 4 0 0 1 370 
4 0 0 4 0 0 1 370 
4 0 0 4 0 0 1 370 
0 0 0 0 0 0 1 371 
0 0 0 0 0 0 0 
